bacp/03/params/inst-533-1-1323586017.param
language Essence 1.3
$ generated by bacp-gen.pl with seed 1323586017
$ edge probability 0.035
$ course loads in range 2..6
letting n_courses be 158
letting n_periods be 29
letting load_per_period_lb be 6
letting load_per_period_ub be 47
letting courses_per_period_lb be 5
letting courses_per_period_ub be 10
letting course_load be function(
1 --> 6,
2 --> 4,
3 --> 5,
4 --> 2,
5 --> 5,
6 --> 6,
7 --> 5,
8 --> 6,
9 --> 2,
10 --> 2,
11 --> 3,
12 --> 6,
13 --> 3,
14 --> 2,
15 --> 3,
16 --> 4,
17 --> 6,
18 --> 2,
19 --> 3,
20 --> 6,
21 --> 4,
22 --> 4,
23 --> 3,
24 --> 3,
25 --> 6,
26 --> 5,
27 --> 5,
28 --> 3,
29 --> 5,
30 --> 3,
31 --> 4,
32 --> 2,
33 --> 5,
34 --> 6,
35 --> 5,
36 --> 4,
37 --> 5,
38 --> 3,
39 --> 5,
40 --> 4,
41 --> 5,
42 --> 6,
43 --> 4,
44 --> 4,
45 --> 3,
46 --> 3,
47 --> 5,
48 --> 4,
49 --> 3,
50 --> 3,
51 --> 5,
52 --> 4,
53 --> 5,
54 --> 2,
55 --> 6,
56 --> 3,
57 --> 3,
58 --> 4,
59 --> 5,
60 --> 6,
61 --> 4,
62 --> 3,
63 --> 5,
64 --> 4,
65 --> 4,
66 --> 6,
67 --> 4,
68 --> 3,
69 --> 2,
70 --> 4,
71 --> 2,
72 --> 4,
73 --> 5,
74 --> 2,
75 --> 2,
76 --> 4,
77 --> 6,
78 --> 4,
79 --> 4,
80 --> 2,
81 --> 5,
82 --> 3,
83 --> 4,
84 --> 2,
85 --> 5,
86 --> 3,
87 --> 4,
88 --> 3,
89 --> 3,
90 --> 3,
91 --> 5,
92 --> 6,
93 --> 2,
94 --> 5,
95 --> 5,
96 --> 5,
97 --> 3,
98 --> 2,
99 --> 5,
100 --> 5,
101 --> 4,
102 --> 2,
103 --> 6,
104 --> 5,
105 --> 2,
106 --> 3,
107 --> 3,
108 --> 6,
109 --> 3,
110 --> 4,
111 --> 2,
112 --> 2,
113 --> 3,
114 --> 2,
115 --> 6,
116 --> 3,
117 --> 5,
118 --> 2,
119 --> 5,
120 --> 5,
121 --> 5,
122 --> 3,
123 --> 5,
124 --> 3,
125 --> 4,
126 --> 4,
127 --> 3,
128 --> 5,
129 --> 2,
130 --> 3,
131 --> 3,
132 --> 5,
133 --> 2,
134 --> 5,
135 --> 2,
136 --> 4,
137 --> 6,
138 --> 2,
139 --> 6,
140 --> 4,
141 --> 5,
142 --> 2,
143 --> 3,
144 --> 2,
145 --> 4,
146 --> 4,
147 --> 3,
148 --> 5,
149 --> 5,
150 --> 2,
151 --> 3,
152 --> 3,
153 --> 4,
154 --> 3,
155 --> 4,
156 --> 3,
157 --> 2,
158 --> 3
)
letting prerequisite be relation (
(26,39),
(30,40),
(28,41),
(35,42),
(1,43),
(12,44),
(27,45),
(21,46),
(32,47),
(19,48),
(29,49),
(4,50),
(14,51),
(14,52),
(13,53),
(29,54),
(10,55),
(4,56),
(26,57),
(24,58),
(24,59),
(22,60),
(23,61),
(37,62),
(37,63),
(28,64),
(9,65),
(8,66),
(4,67),
(29,68),
(26,69),
(17,70),
(23,71),
(5,72),
(29,73),
(19,74),
(6,75),
(37,76),
(24,77),
(37,78),
(33,79),
(1,80),
(5,81),
(38,82),
(20,83),
(15,84),
(7,85),
(6,86),
(35,87),
(13,88),
(33,89),
(1,90),
(4,91),
(32,92),
(25,93),
(35,94),
(19,95),
(35,96),
(11,97),
(6,98),
(16,99),
(1,100),
(34,101),
(1,102),
(87,103),
(52,104),
(77,105),
(47,106),
(79,107),
(84,108),
(87,109),
(100,110),
(46,111),
(73,112),
(41,113),
(69,114),
(92,115),
(58,116),
(72,117),
(92,118),
(51,119),
(53,120),
(75,121),
(43,122),
(41,123),
(59,124),
(92,125),
(39,126),
(44,127),
(69,128),
(51,129),
(39,130),
(44,131),
(96,132),
(58,133),
(48,134),
(94,135),
(69,136),
(52,137),
(71,138),
(90,139),
(95,140),
(84,141),
(65,142),
(69,143),
(45,144),
(45,145),
(94,146),
(83,147),
(71,148),
(40,149),
(92,150),
(86,151),
(99,152),
(63,153),
(66,154),
(52,155),
(75,156),
(98,157),
(57,158),
(19,89),
(10,39),
(15,70),
(90,106),
(52,140),
(35,67),
(53,151),
(7,97),
(18,96),
(72,154),
(75,140),
(24,63),
(24,51),
(96,114),
(76,154),
(42,134),
(12,78),
(36,53),
(36,46),
(89,135),
(24,74),
(24,78),
(38,45),
(24,85),
(11,54),
(21,51),
(72,147),
(87,138),
(56,111),
(29,92),
(16,102),
(73,154),
(39,144),
(48,126),
(16,100),
(85,157),
(31,90),
(30,63),
(75,107),
(97,138),
(13,90),
(19,87),
(5,85),
(38,75),
(21,86),
(20,95),
(9,69),
(56,149),
(63,142),
(28,93),
(87,124),
(14,83),
(37,89),
(23,75),
(3,102),
(45,111),
(17,97),
(23,39),
(34,71),
(20,81),
(37,75),
(66,106),
(70,153),
(8,85),
(101,152),
(59,139),
(3,76),
(5,91),
(12,63),
(54,104),
(76,135),
(55,153),
(36,85),
(33,45),
(43,111),
(89,136),
(63,156),
(18,89),
(20,41),
(63,103),
(84,154),
(85,105),
(35,90),
(101,148),
(5,48),
(13,83),
(31,73),
(91,147),
(15,69),
(59,141)
)

