bacp/param_dec/inst-533-1-1323586017.eprime-param
language ESSENCE' 1.0

letting n_courses be 158
letting n_periods be 29
letting prerequisite_RelationAsSet_Explicit_1 be
        [1, 1, 1, 1, 1, 3, 3, 4, 4, 4, 4, 5, 5, 5, 5, 5, 6, 6, 6, 7, 7, 8, 8, 9, 9, 10, 10, 11, 11, 12, 12, 12, 13, 13,
         13, 13, 14, 14, 14, 15, 15, 15, 16, 16, 16, 17, 17, 18, 18, 19, 19, 19, 19, 19, 20, 20, 20, 20, 21, 21, 21, 22,
         23, 23, 23, 23, 24, 24, 24, 24, 24, 24, 24, 24, 25, 26, 26, 26, 27, 28, 28, 28, 29, 29, 29, 29, 29, 30, 30, 31,
         31, 32, 32, 33, 33, 33, 34, 34, 35, 35, 35, 35, 35, 35, 36, 36, 36, 37, 37, 37, 37, 37, 37, 38, 38, 38, 39, 39,
         39, 40, 41, 41, 42, 43, 43, 44, 44, 45, 45, 45, 46, 47, 48, 48, 51, 51, 52, 52, 52, 52, 53, 53, 54, 55, 56, 56,
         57, 58, 58, 59, 59, 59, 63, 63, 63, 63, 65, 66, 66, 69, 69, 69, 69, 70, 71, 71, 72, 72, 72, 73, 73, 75, 75, 75,
         75, 76, 76, 77, 79, 83, 84, 84, 84, 85, 85, 86, 87, 87, 87, 87, 89, 89, 90, 90, 91, 92, 92, 92, 92, 94, 94, 95,
         96, 96, 97, 98, 99, 100, 101, 101;
             int(1..210)]
letting prerequisite_RelationAsSet_Explicit_2 be
        [43, 80, 90, 100, 102, 76, 102, 50, 56, 67, 91, 48, 72, 81, 85, 91, 75, 86, 98, 85, 97, 66, 85, 65, 69, 39, 55,
         54, 97, 44, 63, 78, 53, 83, 88, 90, 51, 52, 83, 69, 70, 84, 99, 100, 102, 70, 97, 89, 96, 48, 74, 87, 89, 95,
         41, 81, 83, 95, 46, 51, 86, 60, 39, 61, 71, 75, 51, 58, 59, 63, 74, 77, 78, 85, 93, 39, 57, 69, 45, 41, 64, 93,
         49, 54, 68, 73, 92, 40, 63, 73, 90, 47, 92, 45, 79, 89, 71, 101, 42, 67, 87, 90, 94, 96, 46, 53, 85, 62, 63,
         75, 76, 78, 89, 45, 75, 82, 126, 130, 144, 149, 113, 123, 134, 111, 122, 127, 131, 111, 144, 145, 111, 106,
         126, 134, 119, 129, 104, 137, 140, 155, 120, 151, 104, 153, 111, 149, 158, 116, 133, 124, 139, 141, 103, 142,
         153, 156, 142, 106, 154, 114, 128, 136, 143, 153, 138, 148, 117, 147, 154, 112, 154, 107, 121, 140, 156, 135,
         154, 105, 107, 147, 108, 141, 154, 105, 157, 151, 103, 109, 124, 138, 135, 136, 106, 139, 147, 115, 118, 125,
         150, 135, 146, 140, 114, 132, 138, 157, 152, 110, 148, 152;
             int(1..210)]
letting course_load_Function1D be
        [6, 4, 5, 2, 5, 6, 5, 6, 2, 2, 3, 6, 3, 2, 3, 4, 6, 2, 3, 6, 4, 4, 3, 3, 6, 5, 5, 3, 5, 3, 4, 2, 5, 6, 5, 4, 5,
         3, 5, 4, 5, 6, 4, 4, 3, 3, 5, 4, 3, 3, 5, 4, 5, 2, 6, 3, 3, 4, 5, 6, 4, 3, 5, 4, 4, 6, 4, 3, 2, 4, 2, 4, 5, 2,
         2, 4, 6, 4, 4, 2, 5, 3, 4, 2, 5, 3, 4, 3, 3, 3, 5, 6, 2, 5, 5, 5, 3, 2, 5, 5, 4, 2, 6, 5, 2, 3, 3, 6, 3, 4, 2,
         2, 3, 2, 6, 3, 5, 2, 5, 5, 5, 3, 5, 3, 4, 4, 3, 5, 2, 3, 3, 5, 2, 5, 2, 4, 6, 2, 6, 4, 5, 2, 3, 2, 4, 4, 3, 5,
         5, 2, 3, 3, 4, 3, 4, 3, 2, 3;
             int(1..158)]
letting load_per_period_ub be 47
letting load_per_period_lb be 6
letting courses_per_period_ub be 10
letting courses_per_period_lb be 5
letting fin1 be 210
letting fin2 be 158
letting fin3 be 6
